1970.45	10
1965.01	10
1967.31	10
1996.4	10
2010.34	10
1998.09	10
2006.38	10
2034.19	10
1999.89	10
1990.07	10
1997.91	10
1989.31	10
1977.98	10
1968.3	10
1976.58	10
1972.97	10
1972.88	10
1975.43	10
1976.45	10
1983.46	10
1980.14	10
1977.34	10
1972.35	10
2015.62	10
2008.33	10
2013.93	10
2002.15	10
1998.49	10
2004.75	10
2007.04	10
1992.49	10
2006.53	10
1993.11	10
1994.15	10
1999.46	10
1984.75	10
1984.51	10
1999	10
1969.68	10
1965.79	10
1995.36	10
2000.87	10
1990.74	10
1985.22	10
2003.37	10
1982.9	10
1969.31	10
1974	10
1977.01	10
1971.94	10
